unsat
(define-fun f ((x0 (BitVec 64)) (x1 (BitVec 64))) (BitVec 64) (bvmul #b0000000000000000000000000000000000000000000000000000000000001010 (bvsub x1 #b0000000000000000000000000000000000000000000000000000000000000001)))
(define-fun f ((x0 (BitVec 64)) (x1 (BitVec 64))) (BitVec 64) (bvmul #b0000000000000000000000000000000000000000000000000000000000001010 (bvsub x1 #b0000000000000000000000000000000000000000000000000000000000000001)))
int-arith20.sl running time : 1 m 17.780416910 s
times : 77.780416910
